CST02
Position Depot: Random
Horizon for Depot: Small
Position of customers: Cluster
Distribution of the demand: Medium
Width of time windows: Tight
Distribution of the service: Large

VEHICLE 
NUMBER 	 CAPACITY 
 7 	 	 118 
 
CUSTOMER
CUST NO. 	 XCOORD.  	 YCOORD. 	 DEMAND 	 READY TIME 	 DUE DATE 	 SERVICE TIME 
 0 	 	 497 	 	 318 	 	 0 	 	 0 	 	 1690 	 	 0 
  1 	 	 408 	 	 984 	 	 1 	 	 1068 	 	 1174 	 	 164 
  2 	 	 178 	 	 208 	 	 2 	 	 1515 	 	 1605 	 	 153 
  3 	 	 815 	 	 753 	 	 83 	 	 755 	 	 932 	 	 128 
  4 	 	 340 	 	 754 	 	 74 	 	 1494 	 	 1690 	 	 102 
  5 	 	 728 	 	 156 	 	 10 	 	 845 	 	 1003 	 	 147 
  6 	 	 793 	 	 800 	 	 61 	 	 1326 	 	 1492 	 	 178 
  7 	 	 641 	 	 136 	 	 1 	 	 292 	 	 491 	 	 171 
  8 	 	 712 	 	 736 	 	 1 	 	 1317 	 	 1405 	 	 172 
  9 	 	 740 	 	 175 	 	 9 	 	 1386 	 	 1552 	 	 168 
  10 	 	 294 	 	 759 	 	 4 	 	 389 	 	 538 	 	 132 
  11 	 	 286 	 	 786 	 	 8 	 	 1012 	 	 1143 	 	 190 
  12 	 	 175 	 	 239 	 	 6 	 	 451 	 	 634 	 	 180 
  13 	 	 788 	 	 20 	 	 4 	 	 1587 	 	 1690 	 	 196 
  14 	 	 692 	 	 163 	 	 66 	 	 545 	 	 716 	 	 159 
  15 	 	 172 	 	 207 	 	 8 	 	 479 	 	 615 	 	 174 
  16 	 	 178 	 	 79 	 	 3 	 	 354 	 	 439 	 	 153 
  17 	 	 315 	 	 751 	 	 10 	 	 1506 	 	 1690 	 	 179 
  18 	 	 396 	 	 804 	 	 8 	 	 1491 	 	 1690 	 	 110 
  19 	 	 734 	 	 938 	 	 1 	 	 1519 	 	 1690 	 	 197 
  20 	 	 208 	 	 150 	 	 8 	 	 289 	 	 367 	 	 143 
  21 	 	 955 	 	 278 	 	 83 	 	 385 	 	 505 	 	 113 
  22 	 	 773 	 	 152 	 	 5 	 	 320 	 	 443 	 	 125 
  23 	 	 787 	 	 879 	 	 8 	 	 826 	 	 911 	 	 178 
  24 	 	 291 	 	 718 	 	 7 	 	 310 	 	 494 	 	 167 
  25 	 	 628 	 	 17 	 	 7 	 	 477 	 	 650 	 	 165 
  26 	 	 266 	 	 197 	 	 9 	 	 1351 	 	 1508 	 	 126 
  27 	 	 705 	 	 136 	 	 10 	 	 1377 	 	 1521 	 	 104 
  28 	 	 706 	 	 223 	 	 10 	 	 422 	 	 585 	 	 176 
  29 	 	 706 	 	 882 	 	 3 	 	 855 	 	 911 	 	 179 
  30 	 	 279 	 	 42 	 	 1 	 	 1263 	 	 1316 	 	 144 
  31 	 	 742 	 	 166 	 	 6 	 	 593 	 	 689 	 	 168 
  32 	 	 433 	 	 861 	 	 9 	 	 1549 	 	 1690 	 	 162 
  33 	 	 806 	 	 775 	 	 5 	 	 856 	 	 928 	 	 131 
  34 	 	 679 	 	 847 	 	 3 	 	 453 	 	 615 	 	 101 
  35 	 	 221 	 	 172 	 	 6 	 	 639 	 	 739 	 	 139 
  36 	 	 244 	 	 208 	 	 9 	 	 1590 	 	 1690 	 	 115 
  37 	 	 964 	 	 770 	 	 10 	 	 649 	 	 776 	 	 117 
  38 	 	 880 	 	 762 	 	 85 	 	 1020 	 	 1080 	 	 109 
  39 	 	 281 	 	 773 	 	 64 	 	 1497 	 	 1673 	 	 183 
  40 	 	 368 	 	 749 	 	 1 	 	 951 	 	 1053 	 	 106 
  41 	 	 312 	 	 966 	 	 10 	 	 544 	 	 741 	 	 134 
  42 	 	 64 	 	 191 	 	 10 	 	 1483 	 	 1599 	 	 199 
  43 	 	 764 	 	 707 	 	 4 	 	 1333 	 	 1510 	 	 124 
  44 	 	 402 	 	 520 	 	 1 	 	 548 	 	 691 	 	 185 
  45 	 	 868 	 	 714 	 	 3 	 	 515 	 	 596 	 	 163 
  46 	 	 586 	 	 98 	 	 9 	 	 580 	 	 650 	 	 154 
  47 	 	 233 	 	 654 	 	 2 	 	 302 	 	 470 	 	 154 
  48 	 	 825 	 	 794 	 	 85 	 	 496 	 	 635 	 	 184 
  49 	 	 967 	 	 776 	 	 8 	 	 585 	 	 721 	 	 154 
  50 	 	 844 	 	 741 	 	 1 	 	 1551 	 	 1611 	 	 109 
 